/*********************************************
    * Lab01 - FCR
    * Author: Coso
    * Creation Date: Mar, 2019
    *********************************************/
instance_name = "small_instance_08_FCR";

d = 2;
r = 3;

SCj = [136 136];
Dk = [68 82 44];

Cjk = [[34 55 55]
 [37 70 54]];
Fjk = [[524 335 412]
 [454 577 636]];
